This is Ipopt version 3.11.9, running with linear solver mumps.
NOTE: Other linear solvers might be more efficient (see Ipopt documentation).

Number of nonzeros in equality constraint Jacobian...:    16443
Number of nonzeros in inequality constraint Jacobian.:    31320
Number of nonzeros in Lagrangian Hessian.............:        0

Total number of variables............................:      783
                     variables with only lower bounds:        0
                variables with lower and upper bounds:        0
                     variables with only upper bounds:        0
Total number of equality constraints.................:       21
Total number of inequality constraints...............:       40
        inequality constraints with only lower bounds:        0
   inequality constraints with lower and upper bounds:       40
        inequality constraints with only upper bounds:        0

iter    objective    inf_pr   inf_du lg(mu)  ||d||  lg(rg) alpha_du alpha_pr  ls
   0  2.4898897e+00 1.04e-16 1.02e-01   0.0 0.00e+00    -  0.00e+00 0.00e+00   0
   1  2.4595274e+00 1.67e-16 1.92e-01  -3.4 4.14e-02    -  9.95e-01 1.00e+00f  1
   2  2.2574667e+00 1.25e-16 4.91e-02  -4.1 2.78e-02    -  1.00e+00 1.00e+00h  1
   3  2.2103194e+00 2.08e-16 3.61e-02  -5.5 2.72e-02    -  1.00e+00 1.00e+00h  1
   4  2.1582260e+00 1.11e-16 2.46e-02  -6.1 3.24e-02    -  1.00e+00 1.00e+00h  1
   5  2.1098377e+00 1.71e-03 3.70e-02  -5.0 5.92e-02    -  1.00e+00 9.87e-01h  1
   6  2.0928698e+00 6.45e-04 2.53e-02  -4.8 2.68e-02    -  1.00e+00 3.74e-01h  1
   7  2.0619018e+00 1.25e-16 1.82e-02  -4.5 4.53e-02    -  1.00e+00 4.83e-01h  1
   8  2.0115569e+00 1.45e-03 3.58e-02  -4.8 6.82e-02    -  1.00e+00 8.83e-01h  1
   9  1.9903325e+00 8.71e-05 3.41e-02  -4.5 2.62e-02    -  1.00e+00 1.00e+00h  1
iter    objective    inf_pr   inf_du lg(mu)  ||d||  lg(rg) alpha_du alpha_pr  ls
  10  1.9581959e+00 3.94e-06 2.72e-02  -4.5 4.24e-02    -  1.00e+00 1.00e+00h  1
  11  1.9276152e+00 1.38e-04 2.30e-02  -4.7 5.77e-02    -  1.00e+00 1.00e+00h  1
  12  1.9163833e+00 1.25e-16 2.59e-02  -4.5 2.21e-02    -  1.00e+00 1.00e+00h  1
  13  1.9073758e+00 2.29e-16 1.27e-02  -4.8 7.85e-03    -  1.00e+00 1.00e+00h  1
  14  1.8938685e+00 1.73e-16 1.43e-02  -5.4 1.69e-02    -  1.00e+00 1.00e+00h  1
  15  1.8861745e+00 1.51e-04 1.52e-02  -5.5 3.26e-02    -  1.00e+00 4.65e-01h  1
  16  1.8746203e+00 1.90e-04 1.51e-02  -5.6 2.75e-02    -  1.00e+00 7.52e-01h  1
  17  1.8660025e+00 8.61e-05 1.60e-02  -4.9 3.21e-02    -  1.00e+00 7.16e-01h  1
  18  1.8589485e+00 6.43e-04 8.04e-03  -4.9 3.72e-02    -  5.81e-01 6.15e-01h  1
  19  1.8582646e+00 1.03e-04 1.24e-01  -4.0 3.69e-02    -  1.00e+00 1.92e-01h  1
iter    objective    inf_pr   inf_du lg(mu)  ||d||  lg(rg) alpha_du alpha_pr  ls
  20  1.8495216e+00 1.04e-16 2.09e-02  -4.0 1.73e-02    -  1.00e+00 1.00e+00h  1
  21  1.8381431e+00 1.25e-16 1.20e-02  -4.0 2.96e-02    -  9.98e-01 1.00e+00h  1
  22  1.8329859e+00 1.73e-16 2.11e-02  -4.2 1.56e-02    -  9.95e-01 1.00e+00h  1
  23  1.8271442e+00 1.67e-16 1.05e-02  -4.5 1.62e-02    -  1.00e+00 1.00e+00h  1
  24  1.8219908e+00 1.25e-16 2.25e-02  -4.9 1.06e-02    -  1.00e+00 1.00e+00h  1
  25  1.8158825e+00 1.72e-04 1.59e-02  -5.3 1.81e-02    -  1.00e+00 1.00e+00h  1
  26  1.8118110e+00 1.11e-16 1.24e-02  -5.0 1.12e-02    -  1.00e+00 9.38e-01h  1
  27  1.8074778e+00 1.39e-16 7.57e-03  -5.3 7.12e-03    -  1.00e+00 1.00e+00h  1
  28  1.8041554e+00 8.33e-17 6.01e-03  -5.7 1.28e-02    -  1.00e+00 4.59e-01h  1
  29  1.8004764e+00 1.06e-04 6.71e-03  -5.8 1.08e-02    -  1.00e+00 9.90e-01h  1
iter    objective    inf_pr   inf_du lg(mu)  ||d||  lg(rg) alpha_du alpha_pr  ls
  30  1.7980363e+00 2.53e-05 8.59e-03  -5.3 1.21e-02    -  1.00e+00 9.17e-01h  1
  31  1.7975749e+00 1.76e-05 1.65e-02 -11.0 1.62e-02    -  5.44e-01 9.33e-02h  1
  32  1.7883632e+00 1.43e-03 7.58e-03  -5.3 4.56e-02    -  1.00e+00 9.33e-01h  1
  33  1.7856490e+00 2.13e-04 1.10e-02  -5.6 1.75e-02    -  1.00e+00 1.00e+00h  1
  34  1.7828644e+00 1.66e-04 8.90e-03  -4.8 1.46e-02    -  1.00e+00 9.84e-01h  1
  35  1.7783992e+00 2.72e-05 7.10e-03  -4.8 2.13e-02    -  1.00e+00 1.00e+00h  1
  36  1.7732417e+00 2.17e-04 8.28e-03  -5.2 2.91e-02    -  1.00e+00 7.92e-01h  1
  37  1.7700468e+00 3.93e-05 7.50e-03  -4.8 1.11e-02    -  1.00e+00 9.54e-01h  1
  38  1.7656470e+00 2.31e-04 1.17e-02  -5.3 2.08e-02    -  1.00e+00 1.00e+00h  1
  39  1.7626773e+00 6.43e-05 1.69e-02  -5.0 1.82e-02    -  1.00e+00 6.49e-01h  1
iter    objective    inf_pr   inf_du lg(mu)  ||d||  lg(rg) alpha_du alpha_pr  ls
  40  1.7592080e+00 2.27e-05 6.09e-03  -5.0 1.13e-02    -  1.00e+00 8.88e-01h  1
  41  1.7556851e+00 1.59e-04 7.62e-03  -5.1 1.91e-02    -  9.99e-01 1.00e+00h  1
  42  1.7540980e+00 7.20e-05 8.31e-03  -6.1 1.23e-02    -  1.00e+00 1.00e+00h  1
  43  1.7527563e+00 2.01e-05 4.30e-03  -5.4 6.07e-03    -  1.00e+00 8.28e-01h  1
  44  1.7509250e+00 3.75e-05 2.52e-03  -5.6 9.49e-03    -  1.00e+00 1.00e+00h  1

Number of Iterations....: 44

                                   (scaled)                 (unscaled)
Objective...............:   1.7509250254502143e-01    1.7509250254502142e+00
Dual infeasibility......:   2.5203949351471720e-03    2.5203949351471720e-02
Constraint violation....:   3.7530756785808528e-05    3.7530756785808528e-05
Complementarity.........:   3.5966152814206635e-06    3.5966152814206636e-05
Overall NLP error.......:   2.5203949351471720e-03    2.5203949351471720e-02


Number of objective function evaluations             = 45
Number of objective gradient evaluations             = 45
Number of equality constraint evaluations            = 45
Number of inequality constraint evaluations          = 45
Number of equality constraint Jacobian evaluations   = 45
Number of inequality constraint Jacobian evaluations = 45
Number of Lagrangian Hessian evaluations             = 0
Total CPU secs in IPOPT (w/o function evaluations)   =      2.357
Total CPU secs in NLP function evaluations           =    119.328

EXIT: Optimal Solution Found.
